param n := 60;
param c := 1000;
param : V : p w :=
   0	  75	 475
   1	  80	 256
   2	  53	 269
   3	  70	 396
   4	  18	 264
   5	  69	 340
   6	  19	 468
   7	  55	 262
   8	  99	 270
   9	  75	 361
  10	  30	 300
  11	  11	 339
  12	  86	 444
  13	  19	 251
  14	  49	 305
  15	  82	 366
  16	  51	 252
  17	  77	 382
  18	  41	 409
  19	  85	 277
  20	   4	 314
  21	  44	 465
  22	  20	 260
  23	  19	 275
  24	  11	 447
  25	   1	 251
  26	  30	 302
  27	  52	 399
  28	  89	 297
  29	  21	 304
  30	  90	 423
  31	  93	 258
  32	  26	 319
  33	  15	 473
  34	  21	 260
  35	  55	 267
  36	  73	 426
  37	  93	 261
  38	 100	 313
  39	  74	 403
  40	  94	 289
  41	  84	 308
  42	   7	 402
  43	  91	 265
  44	   5	 333
  45	  81	 396
  46	   7	 257
  47	  28	 347
  48	  15	 411
  49	  31	 282
  50	  72	 307
  51	  82	 462
  52	  91	 258
  53	  22	 280
  54	  68	 412
  55	   9	 254
  56	  56	 334
  57	  84	 376
  58	  82	 255
  59	   9	 369
;

set E :=
   0	   1
   0	   9
   0	  12
   0	  13
   0	  14
   0	  25
   0	  27
   0	  38
   0	  44
   0	  49
   0	  51
   1	   2
   1	   7
   1	  14
   1	  20
   1	  24
   1	  36
   1	  40
   1	  51
   2	   3
   2	   4
   2	  12
   2	  16
   2	  18
   2	  23
   2	  30
   2	  31
   2	  32
   2	  33
   2	  37
   2	  38
   2	  42
   2	  44
   2	  47
   2	  49
   2	  56
   3	  10
   3	  12
   3	  14
   3	  16
   3	  25
   3	  29
   3	  33
   3	  51
   3	  56
   3	  59
   4	   9
   4	  14
   4	  23
   4	  24
   4	  37
   4	  45
   4	  46
   4	  52
   4	  57
   5	   9
   5	  11
   5	  26
   5	  27
   5	  29
   5	  32
   5	  47
   5	  50
   5	  55
   6	   7
   6	  11
   6	  12
   6	  18
   6	  23
   6	  24
   6	  31
   6	  33
   6	  44
   6	  45
   6	  50
   6	  52
   6	  54
   6	  58
   6	  59
   7	   9
   7	  18
   7	  24
   7	  29
   7	  48
   7	  50
   7	  51
   8	  14
   8	  20
   8	  26
   8	  29
   8	  36
   8	  45
   8	  47
   8	  50
   8	  54
   8	  59
   9	  14
   9	  20
   9	  21
   9	  28
   9	  48
   9	  51
   9	  52
   9	  53
   9	  54
  10	  16
  10	  19
  10	  28
  10	  29
  10	  36
  10	  40
  10	  42
  10	  53
  10	  57
  11	  15
  11	  21
  11	  37
  11	  38
  11	  41
  11	  46
  11	  52
  11	  53
  11	  58
  12	  13
  12	  15
  12	  17
  12	  18
  12	  27
  12	  36
  12	  37
  12	  38
  12	  47
  12	  53
  12	  58
  13	  20
  13	  23
  13	  30
  13	  38
  13	  43
  13	  53
  13	  59
  14	  18
  14	  27
  14	  33
  14	  34
  14	  36
  14	  48
  14	  52
  14	  53
  14	  54
  14	  56
  14	  57
  15	  19
  15	  21
  15	  27
  15	  33
  15	  56
  16	  20
  16	  23
  16	  30
  16	  35
  16	  39
  16	  53
  17	  19
  17	  24
  17	  36
  17	  49
  17	  52
  17	  53
  18	  29
  18	  30
  18	  37
  18	  52
  18	  54
  18	  55
  19	  22
  19	  25
  19	  26
  19	  37
  19	  39
  19	  41
  19	  47
  19	  49
  19	  54
  20	  21
  20	  26
  20	  29
  20	  30
  20	  31
  20	  33
  20	  34
  20	  35
  20	  42
  20	  45
  20	  59
  21	  33
  21	  40
  21	  44
  21	  50
  21	  51
  21	  56
  21	  57
  21	  58
  22	  23
  22	  24
  22	  25
  22	  26
  22	  28
  22	  31
  22	  50
  22	  55
  22	  59
  23	  27
  23	  33
  23	  45
  23	  54
  23	  58
  24	  26
  24	  27
  24	  35
  24	  44
  24	  51
  24	  55
  25	  27
  25	  39
  25	  40
  25	  42
  25	  45
  25	  54
  25	  57
  25	  58
  25	  59
  26	  28
  26	  31
  26	  41
  26	  50
  26	  55
  26	  58
  27	  29
  27	  38
  27	  39
  27	  40
  27	  41
  27	  45
  27	  48
  27	  51
  27	  59
  28	  35
  28	  40
  28	  43
  28	  45
  28	  50
  28	  54
  28	  55
  29	  30
  29	  33
  29	  34
  29	  37
  29	  40
  29	  42
  29	  46
  29	  54
  30	  31
  30	  39
  30	  41
  30	  42
  30	  48
  30	  52
  30	  54
  31	  34
  31	  37
  31	  39
  31	  43
  31	  46
  31	  49
  31	  51
  31	  59
  32	  34
  32	  35
  32	  38
  32	  40
  32	  41
  32	  43
  32	  59
  33	  37
  33	  47
  33	  51
  33	  53
  33	  56
  33	  59
  34	  37
  34	  40
  34	  46
  34	  53
  34	  58
  35	  46
  35	  47
  35	  48
  35	  55
  35	  56
  35	  58
  35	  59
  36	  43
  36	  55
  36	  56
  37	  42
  37	  46
  37	  48
  37	  50
  37	  52
  37	  57
  38	  40
  38	  57
  39	  40
  39	  46
  39	  47
  39	  50
  39	  51
  39	  52
  39	  58
  40	  43
  40	  44
  40	  45
  40	  50
  40	  52
  40	  57
  41	  48
  41	  53
  41	  58
  42	  48
  42	  50
  42	  52
  42	  53
  42	  54
  42	  58
  43	  52
  43	  54
  43	  55
  44	  47
  44	  49
  44	  58
  45	  52
  45	  57
  46	  48
  46	  57
  47	  49
  47	  54
  47	  55
  47	  57
  47	  59
  48	  50
  48	  56
  49	  50
  49	  57
  49	  59
  50	  57
  51	  52
  51	  57
  53	  59
  57	  58
;
